c 2 -> 1
c 4 -> 2
c 6 -> 3
c 8 -> 4
c 10 -> 5
c 12 -> 6
c 14 -> 7
c 16 -> 8
c 18 -> 9
c 20 -> 10
c 22 -> 11
c 24 -> 12
c 26 -> 13
c 28 -> 14
c 30 -> 15
c 32 -> 16
c 34 -> 17
c 42 -> 18
c 46 -> 19
c 52 -> 20
c 56 -> 21
c 58 -> 22
c 60 -> 23
c 62 -> 24
c 64 -> 25
p cnf 25 32
-10 -1 0
-10 -2 0
-11 3 0
-11 10 0
-12 3 0
-12 11 0
-13 -4 0
-13 -5 0
-14 6 0
-14 13 0
-15 1 0
-15 7 0
-16 6 0
-16 15 0
-17 -7 0
-17 -8 0
18 8 7 0
18 -8 -7 0
19 9 -18 0
19 -9 17 0
20 -2 -1 0
20 2 1 0
21 3 -20 0
21 -3 10 0
-22 -19 0
-22 -21 0
-23 16 0
-23 22 0
-24 14 0
-24 23 0
25 12 24 0
-25 0
